100
76 75
60 14
46 5
91 14
70 95
86 31
20 0
41 55
21 15
46 1
95 45
16 89
41 1
60 94
55 25
71 41
39 35
61 70
80 36
100 26
65 85
40 51
19 71
34 50
36 61
69 50
61 94
19 11
51 91
61 54
76 90
41 75
35 100
1 40
15 91
21 11
79 81
34 36
74 99
75 14
65 54
55 10
100 6
99 91
25 86
75 16
30 45
21 85
75 80
71 35
56 81
25 76
85 76
60 34
41 44
6 55
60 54
40 96
20 71
94 45
31 41
40 49
56 80
DEMAND_SECTION Best value: 1315
0 
11 
20 
26 
17 
5 
17 
1 
15 
16 
22 
2 
22 
25 
20 
20 
21 
26 
12 
5 
11 
5 
21 
17 
12 
12 
15 
21 
12 
2 
17 
16 
15 
26 
12 
22 
16 
21 
16 
2 
6 
2 
6 
10 
11 
1 
63 
10 
21 
7 
1 
6 
26 
17 
10 
25 
25 
25 
16 
5 
22 
17 
6 